4   7   3
13   2 1 45 2 45  0   2 1 45 2 45  0   2 1 45 2 45  0   2 3 45 4 45  2 1 2   2 1 45 2 45  0   2 3 60 4 60  2 3 4   2 1 45 2 45  0   2 3 60 4 60  2 5 6   2 3 60 4 60  2 7 8  2 5 45 6 45  1 9  2 5 60 6 60  1 10  2 5 45 6 45  1 11  1 7 60  1 12 
11   2 1 45 2 45  0   2 1 45 2 45  0   2 1 45 2 45  0   2 3 60 4 60  2 1 2   2 1 45 2 45  0   2 3 60 4 60  2 3 4   2 3 60 4 60  2 5 6  2 5 45 6 45  1 7  2 5 60 6 60  1 8  2 5 45 6 45  1 9  1 7 60  1 10 
10   2 1 45 2 45  0   2 1 45 2 45  0   2 1 45 2 45  0   2 3 45 4 45  2 1 2   2 1 45 2 45  0   2 3 60 4 60  2 3 4   2 3 60 4 60  2 5 6  2 5 60 6 60  1 7  2 5 45 6 45  1 8  1 7 60  1 9 
8   2 1 45 2 45  0   2 1 45 2 45  0   2 1 45 2 45  0   2 3 60 4 60  2 1 2   2 3 60 4 60  2 3 4   2 5 60 6 60  1 5   2 5 45 6 45  1 6  1 7 60  1 7 
11  8 21  9 16 27
   18 11 19 27 16
      28 16 18 34
         30 37 24
             8 36
               43